20171222 497425.37 440319.20
20170801 494674.37 440232.57
20170609 494674.37 439742.90
20160630 494722.37 439742.90
20160627 494722.37 439742.90
20160426 441711.90 439742.90
20150630 439742.90 439742.90
